p cnf 165 122
c p distribution  0.875 0.125
c p distribution  0.875 0.125
c p distribution  0.875 0.125
c p distribution  0.875 0.125
c p distribution  0.875 0.125
c p distribution  0.875 0.125
c p distribution  0.875 0.125
c p distribution  0.875 0.125
c p distribution  0.875 0.125
c p distribution  0.875 0.125
c p distribution  0.875 0.125
c p distribution  0.875 0.125
c p distribution  0.875 0.125
c p distribution  0.875 0.125
c p distribution  0.875 0.125
c p distribution  0.875 0.125
c p distribution  0.875 0.125
c p distribution  0.875 0.125
c p distribution  0.875 0.125
c p distribution  0.875 0.125
c p distribution  0.875 0.125
c p distribution  0.875 0.125
c p distribution  0.875 0.125
c p distribution  0.875 0.125
c p distribution  0.875 0.125
c p distribution  0.875 0.125
c p distribution  0.875 0.125
c p distribution  0.875 0.125
c p distribution  0.875 0.125
c p distribution  0.875 0.125
c p distribution  0.875 0.125
c p distribution  0.875 0.125
c p distribution  0.875 0.125
c p distribution  0.875 0.125
c p distribution  0.875 0.125
c p distribution  0.875 0.125
c p distribution  0.875 0.125
c p distribution  0.875 0.125
c p distribution  0.875 0.125
c p distribution  0.875 0.125
c p distribution  0.875 0.125
c p distribution  0.875 0.125
c p distribution  0.875 0.125
c p distribution  0.875 0.125
c p distribution  0.875 0.125
c p distribution  0.875 0.125
c p distribution  0.875 0.125
c p distribution  0.875 0.125
c p distribution  0.875 0.125
c p distribution  0.875 0.125
c p distribution  0.875 0.125
c p distribution  0.875 0.125
c p distribution  0.875 0.125
c p distribution  0.875 0.125
c p distribution  0.875 0.125
c p distribution  0.875 0.125
c p distribution  0.875 0.125
c p distribution  0.875 0.125
c p distribution  0.875 0.125
c p distribution  0.875 0.125
149 0
-154 0
154 -127 -1 0
127 -154 -1 0
161 -130 -3 0
130 -161 -3 0
158 -132 -5 0
132 -158 -5 0
135 -160 -7 0
160 -135 -7 0
138 -134 -9 0
134 -138 -9 0
143 -152 -11 0
152 -143 -11 0
149 -121 -13 0
121 -149 -13 0
150 -162 -15 0
162 -150 -15 0
133 -125 -17 0
125 -133 -17 0
165 -149 -19 0
149 -165 -19 0
140 -123 -21 0
123 -140 -21 0
154 -135 -23 0
135 -154 -23 0
148 -135 -25 0
135 -148 -25 0
154 -127 -27 0
127 -154 -27 0
154 -127 -29 0
127 -154 -29 0
142 -165 -31 0
165 -142 -31 0
146 -142 -33 0
142 -146 -33 0
136 -131 -35 0
131 -136 -35 0
154 -137 -37 0
137 -154 -37 0
130 -164 -39 0
164 -130 -39 0
147 -121 -41 0
121 -147 -41 0
145 -155 -43 0
155 -145 -43 0
151 -163 -45 0
163 -151 -45 0
158 -161 -47 0
161 -158 -47 0
150 -162 -49 0
162 -150 -49 0
129 -122 -51 0
122 -129 -51 0
130 -144 -53 0
144 -130 -53 0
153 -156 -55 0
156 -153 -55 0
163 -122 -57 0
122 -163 -57 0
162 -142 -59 0
142 -162 -59 0
124 -153 -61 0
153 -124 -61 0
154 -132 -63 0
132 -154 -63 0
124 -153 -65 0
153 -124 -65 0
161 -123 -67 0
123 -161 -67 0
128 -140 -69 0
140 -128 -69 0
159 -139 -71 0
139 -159 -71 0
161 -130 -73 0
130 -161 -73 0
154 -135 -75 0
135 -154 -75 0
135 -145 -77 0
145 -135 -77 0
136 -164 -79 0
164 -136 -79 0
134 -157 -81 0
157 -134 -81 0
137 -139 -83 0
139 -137 -83 0
138 -143 -85 0
143 -138 -85 0
165 -149 -87 0
149 -165 -87 0
135 -133 -89 0
133 -135 -89 0
135 -145 -91 0
145 -135 -91 0
143 -152 -93 0
152 -143 -93 0
125 -133 -95 0
133 -125 -95 0
135 -160 -97 0
160 -135 -97 0
125 -163 -99 0
163 -125 -99 0
136 -141 -101 0
141 -136 -101 0
142 -150 -103 0
150 -142 -103 0
136 -141 -105 0
141 -136 -105 0
143 -152 -107 0
152 -143 -107 0
124 -159 -109 0
159 -124 -109 0
160 -126 -111 0
126 -160 -111 0
161 -132 -113 0
132 -161 -113 0
147 -127 -115 0
127 -147 -115 0
151 -157 -117 0
157 -151 -117 0
157 -134 -119 0
134 -157 -119 0

